NAME: tsp30-44
TYPE: TSP
DIMENSION: 30
EDGE_WEIGHT_TYPE: EUC_2D
NODE_COORD_SECTION
0 14 65
1 96 17
2 93 97
3 13 75
4 11 23
5 84 47
6 78 69
7 26 40
8 86 38
9 50 42
10 19 89
11 10 18
12 9 70
13 56 49
14 16 56
15 29 72
16 0 53
17 32 77
18 98 90
19 27 77
20 67 1
21 64 97
22 25 2
23 28 89
24 25 33
25 0 88
26 13 45
27 9 48
28 6 88
29 91 58
EOF